&CONTROL
  calculation = 'scf'
  etot_conv_thr =   5.0000000000d-05
  forc_conv_thr =   1.0000000000d-04
  outdir = './out_scf/'
  prefix = 'CPB'
  pseudo_dir = './pseudo/'
  tprnfor = .true.
  tstress = .true.
  verbosity = 'high'
/
&SYSTEM
  degauss =   1.4699723600d-02
  ecutrho =   2.5000000000d+02
  ecutwfc =   6.0000000000d+01
  ibrav = 0
  nat = 40
  nosym = .false.
  ntyp = 4
  nbnd = 354
  occupations = 'smearing'
  smearing = 'gaussian'
  noncolin=.true.
  lspinorb=.true. 
  constrained_magnetization= 'atomic'
  starting_magnetization(3)= 0.6
  starting_magnetization(4)= 0.6
  hubbard_occ(2,1) = 6.0d0
/
&ELECTRONS
  conv_thr =   1.0000000000d-06
!  mixing_beta =   4.0000000000d-01
!  mixing_mode = 'local-TF'

/

ATOMIC_SPECIES
Br     79.904 br_pbe_v1.4.uspp.F.UPF
Cs     132.9054519 Cs_pbe_v1.uspp.F.UPF
Pb     207.2 Pb.pbe-dn-kjpaw_psl.0.2.2.UPF
Fe     55.845 fe_pbe_v1.5.uspp.F.UPF
ATOMIC_POSITIONS angstrom
Cs            0.0979976085        0.0979976085        0.0979976085
Fe            2.9881606595        2.9881606595        2.9881606595
Br            0.2494578342        2.9881606595        2.9881606595
Br            2.9881606595        0.2494578342        2.9881606595
Br            2.9881606595        2.9881606595        0.2494578342
Cs            0.0979976085        0.0979976085        5.8783237105
Pb            2.9881606595        2.9881606595        8.9644819785
Br            0.0177741325        2.9881606595        8.9644819785
Br            2.9881606595        0.0177741325        8.9644819785
Br            2.9881606595        2.9881606595        5.7268634848
Cs            0.0979976085        5.8783237105        0.0979976085
Pb            2.9881606595        8.9644819785        2.9881606595
Br            0.0177741325        8.9644819785        2.9881606595
Br            2.9881606595        5.7268634848        2.9881606595
Br            2.9881606595        8.9644819785        0.0177741325
Cs            0.0979976085        5.8783237105        5.8783237105
Pb            2.9881606595        8.9644819785        8.9644819785
Br            0.0111070458        8.9644819785        8.9644819785
Br            2.9881606595        5.9585471865        8.9644819785
Br            2.9881606595        8.9644819785        5.9585471865
Cs            5.8783237105        0.0979976085        0.0979976085
Pb            8.9644819785        2.9881606595        2.9881606595
Br            5.7268634848        2.9881606595        2.9881606595
Br            8.9644819785        0.0177741325        2.9881606595
Br            8.9644819785        2.9881606595        0.0177741325
Cs            5.8783237105        0.0979976085        5.8783237105
Pb            8.9644819785        2.9881606595        8.9644819785
Br            5.9585471865        2.9881606595        8.9644819785
Br            8.9644819785        0.0111070458        8.9644819785
Br            8.9644819785        2.9881606595        5.9585471865
Cs            5.8783237105        5.8783237105        0.0979976085
Pb            8.9644819785        8.9644819785        2.9881606595
Br            5.9585471865        8.9644819785        2.9881606595
Br            8.9644819785        5.9585471865        2.9881606595
Br            8.9644819785        8.9644819785        0.0111070458
Cs            5.8783237105        5.8783237105        5.8783237105
Pb            8.9644819785        8.9644819785        8.9644819785
Br            5.9652142732        8.9644819785        8.9644819785
Br            8.9644819785        5.9652142732        8.9644819785
Br            8.9644819785        8.9644819785        5.9652142732
K_POINTS automatic
3 3 3 0 0 0
CELL_PARAMETERS angstrom
      11.952643       0.0000000000       0.0000000000
      0.0000000000       11.952643         0.0000000000
      0.0000000000       0.0000000000       11.952643  

HUBBARD {atomic}
U Fe-3d 4